NAME : XML100_1166_14
DIMENSION : 101
NB_CLUSTERS : 5
CLUSTERING_ALG : KMedoids
CLUSTERING_PARAMS : k(4)
CLUSTERS
1 0
2 2 3 6 19 21 22 25 28 30 34 41 44 47 49 50 53 56 59 60 68 71 75 76 88 92 95 97 98 99
3 1 4 9 12 15 17 18 29 37 38 45 46 51 52 54 55 57 62 63 65 67 72 74 79 80 84 85 89 90 94
4 10 11 20 26 27 32 39 43 48 69 73 77 78 83 91 93
5 5 7 8 13 14 16 23 24 31 33 35 36 40 42 58 61 64 66 70 81 82 86 87 96 100
EOF